10J3M/DAT/10J3MNLL-8.dat
10 3
25.2469 25.2469
16.4356 16.4356
26.5521 26.5521
18.9759 18.9759
31.193 31.193
16.9492 16.9492
29.4526 29.4526
30.3004 30.3004
18.1566 18.1566
23.3403 23.3403
78.8675