10J3M/SOL/10J3MNLL-8.sol
solution status: optimal solution found
objective value:                              78.8675
x#1#2                               0.829210714978869 	(obj:0)
x#1#3                               0.170789285021131 	(obj:0)
x#2#2                                               1 	(obj:0)
x#3#3                                               1 	(obj:0)
x#4#1                                               1 	(obj:0)
x#5#1                               0.432462411438464 	(obj:0)
x#5#3                               0.567534382714071 	(obj:0)
x#6#1                                               1 	(obj:0)
x#7#1                                               1 	(obj:0)
x#8#3                                               1 	(obj:0)
x#9#2                                               1 	(obj:0)
x#10#2                                              1 	(obj:0)
z                                             78.8675 	(obj:1)
